23
13
9 10 17
20 5 9
6 14 12 0 9 13 19 18 7 17 21 1 4 20 16 8 15
0 22 17 18 19 5 11 1 21 6 8 3
9 14 7 12 16 10 5 8 3 18
14 8 6 21 5 1 0 22 16 4 20
13 19 6 14 18 8 7 0 22 9 4 11 15 1 10 5 17 20 2 12 3 16
7 9 12 21 22 10 20 19 11 2 4 15 8 5 16 14
5 2 9 10 0 8 21 17 20 19 16 7 4 12 15 18 11 6
21 5 7 11 9 14 0
9 17 6 8 5 20 22 21 19 16 3 14 13 10 0 11 15 1 2 12 7 18 4
10 6 5 9 13 11 18 17 19 7 8 21
13 12 6 14 1 20 8 5 15 10 22 17 16 21 4 9 19
